24 4
39 80 48 35 60 10 28 85 95 65 71 85 83 70 88 48 40 61 52 46 96 38 80 68
25 73 32 53 68 30 39 91 94 59 72 88 90 71 82 37 38 51 54 50 90 40 64 59
39 68 34 44 67 21 23 93 70 54 67 97 80 80 90 59 42 75 73 57 96 37 70 66
40 71 37 52 82 37 46 95 83 61 78 98 81 83 84 29 23 61 68 32 95 34 63 45
